Route #1: 1 20 27 36 66 70 57 48 58 62 17 44 69 1 
Route #2: 1 12 53 29 80 19 49 15 1 
Route #3: 1 18 32 28 60 31 7 25 6 1 
Route #4: 1 77 73 55 10 56 16 34 47 65 40 1 
Route #5: 1 13 45 24 63 64 72 11 1 
Route #6: 1 59 33 5 23 46 51 71 54 1 
Route #7: 1 35 3 38 9 79 21 76 26 42 78 52 1 
Route #8: 1 14 75 30 61 4 43 1 
Route #9: 1 2 8 22 41 1 
Route #10: 1 50 74 39 67 68 37 1 
Cost 1836
